CMD:
./solvers/bin/cadical --plain --no-reduce -t 1600 ./data/cnfs//oski15a01b63s/oski15a01b63s.91.cnf

c --- [ banner ] -------------------------------------------------------------
c 
c CaDiCaL SAT Solver
c Copyright (c) 2016-2024
c A. Biere, M. Fleury, N. Froleyks, K. Fazekas, F. Pollitt, T. Faller
c JKU Linz, University of Freiburg, TU Wien
c 
c Version 2.1.3 5296d3d2a9bf48c154ab2acb5e44625776d821bf
c g++ (Gentoo 12.3.1_p20230526 p2) 12.3.1 20230526 -Wall -Wextra -O3 -DNDEBUG
c Sat Aug 9 07:26:21 PDT 2025 Linux cedar2.int.cedar.computecanada.ca 5.14.0-362.24.2.el9_3.x86_64 x86_64
c 
c --- [ limit ] --------------------------------------------------------------
c 
c setting time limit to 1600 seconds real time (due to '-t 1600')
c 
c --- [ parsing input ] ------------------------------------------------------
c 
c reading DIMACS file from './data/cnfs//oski15a01b63s/oski15a01b63s.91.cnf'
c opening file to read './data/cnfs//oski15a01b63s/oski15a01b63s.91.cnf'
c found 'p cnf 29614284 84620267' header
c parsed 84620267 clauses in 14.54 seconds process time
c 
c --- [ options ] ------------------------------------------------------------
c 
c   --compact=false                (different from default 'true')
c   --decompose=false              (different from default 'true')
c   --deduplicate=false            (different from default 'true')
c   --elim=false                   (different from default 'true')
c   --probe=false                  (different from default 'true')
c   --reduce=false                 (different from default 'true')
c   --subsume=false                (different from default 'true')
c   --ternary=false                (different from default 'true')
c   --transred=false               (different from default 'true')
c   --vivify=false                 (different from default 'true')
c 
c --- [ solving ] ------------------------------------------------------------
c 
c time measured in process time since initialization
c 
c  seconds     reductions  redundant   irredundant
c           MB     restarts       trail          variables
c             level   conflicts       glue              remaining
c 
c * 14.54 12776  0 0   0    0    0  0% 0 81198870 24372895 82%
c { 15.10 12786  0 0   0    0    0  0% 0 81198870 24372895 82%
c i 15.83 12786 128 0   0   37   36 18% 1 81198870 24372891 82%
c i 15.83 12786 129 0   0   38   36 18% 1 81198870 24372889 82%
c i 15.86 12786 144 0   0   56   36 18% 1 81198870 24364315 82%
c i 15.91 12786 146 0   0   61   40 18% 1 81198870 24274969 82%
c i 15.91 12786 147 0   0   63   40 18% 1 81198870 24274967 82%
c i 15.91 12786 147 0   0   64   40 18% 1 81198870 24274959 82%
c i 15.91 12786 148 0   0   66   41 18% 1 81198870 24274957 82%
c } 15.91 12786 148 0   0   68   41 19% 1 81198870 24274937 82%
c 0 15.91 12786 148 0   0   68   41 19% 1 81198870 24274937 82%
c 
c --- [ result ] -------------------------------------------------------------
c 
s UNSATISFIABLE
c 
c --- [ run-time profiling ] -------------------------------------------------
c 
c process time taken by individual solving procedures
c (percentage relative to process time for solving)
c 
c        14.54 1060.83% parse
c         1.35   98.66% search
c         0.81   59.23% unstable
c         0.54   39.43% lucky
c         0.00    0.00% simplify
c   =================================
c         1.37    8.61% solve
c 
c last line shows process time for solving
c (percentage relative to total process time)
c 
c --- [ statistics ] ---------------------------------------------------------
c 
c chronological:                60        88.24 %  of conflicts
c conflicts:                    68        49.60    per second
c decisions:                   857       625.16    per second
c fixed:                   5339347        18.03 %  of all variables
c learned:                      67        98.53 %  per conflict
c learned_lits:                216       100.00 %  learned literals
c minimized:                     0         0.00 %  learned literals
c shrunken:                     99        45.83 %  learned literals
c minishrunken:                  0         0.00 %  learned literals
c otfs:                          0         0.00 %  of conflict
c propagations:            7300952         5.33 M  per second
c 
c seconds are measured in process time for solving
c 
c --- [ resources ] ----------------------------------------------------------
c 
c total process time since initialization:        15.91    seconds
c total real time since initialization:           16.03    seconds
c maximum resident set size of process:        12784.28    MB
c 
c --- [ shutting down ] ------------------------------------------------------
c 
c exit 20
